(set-logic ALL)
(set-option :produce-models true)
(declare-sort BoundSet 0)
(declare-sort UnboundSet 0)
(declare-fun IsDisplaced (BoundSet) Bool)
(declare-fun IsWipedOffTheMap (BoundSet) Bool)
(declare-fun ( (Bool) Bool)
(assert (not (=> (exists ((a BoundSet)) (IsDisplaced a)) (exists ((e BoundSet)) (exists ((c BoundSet)) (or (exists ((d BoundSet)) (( (and (IsWipedOffTheMap c) (IsWipedOffTheMap d)))) (IsWipedOffTheMap e)))))))
(check-sat)
(get-model)